2025-09-16 01:00:39,298 | INFO | Logging to Demo5\scheduler_run.log
2025-09-16 01:00:39,300 | INFO | ===== SCHEDULER RUN 20250916_010039 =====
2025-09-16 01:00:39,301 | INFO | Args.case=C:\Users\sapper\AppData\Local\Temp\tmpohcd3xs7.json
2025-09-16 01:00:39,319 | INFO | Loaded case with 31 days, 308 shifts, 19 providers
2025-09-16 01:00:39,319 | INFO | Run config: out=Demo5 k=1 seed=1 time=1500 L=1
2025-09-16 01:00:39,327 | INFO | Wrote: Demo5\constants_effective.log
2025-09-16 01:00:39,333 | INFO | Wrote capacity snapshot: Demo5\eligibility_capacity.json
2025-09-16 01:00:39,336 | INFO | Instance: |days|=31 |shifts|=308 |providers|=19 |types|=10
2025-09-16 01:00:39,337 | INFO | Weekend names: ['Saturday', 'Sunday']
2025-09-16 01:00:39,339 | INFO | Weekend indices: [3, 4, 10, 11, 17, 18, 24, 25]
2025-09-16 01:00:39,339 | INFO | Shift[0] keys: ['id', 'date', 'type', 'start', 'end', 'allowed_provider_types']
2025-09-16 01:00:39,345 | INFO | Provider[0] keys: ['id', 'name', 'type', 'weekday_pref', 'type_pref', 'requested_off_soft', 'preferred_days_soft', 'forbidden_days_hard', 'limits', 'preferred_days_hard', 'max_consecutive_days', 'forbidden_days_soft']
2025-09-16 01:00:39,350 | INFO | Provider types: ['MD', 'MD2']
2025-09-16 01:00:39,669 | INFO | max_consecutive_days per provider (0 means no cap): [12, 6, 31, 9, 5, 10, 31, 31, 8, 31, 31, 6, 31, 7, 31, 20, 31, 8, 2]
2025-09-16 01:00:42,237 | INFO | 0
2025-09-16 01:00:42,246 | INFO | 1
2025-09-16 01:00:42,254 | INFO | 2
2025-09-16 01:00:42,261 | INFO | 3
2025-09-16 01:00:42,271 | INFO | 4
2025-09-16 01:00:42,279 | INFO | 5
2025-09-16 01:00:42,288 | INFO | 6
2025-09-16 01:00:42,294 | INFO | 7
2025-09-16 01:00:42,300 | INFO | 8
2025-09-16 01:00:42,306 | INFO | 9
2025-09-16 01:00:42,314 | INFO | 10
2025-09-16 01:00:42,322 | INFO | 11
2025-09-16 01:00:42,330 | INFO | 12
2025-09-16 01:00:42,339 | INFO | 13
2025-09-16 01:00:42,348 | INFO | 14
2025-09-16 01:00:42,353 | INFO | 15
2025-09-16 01:00:42,361 | INFO | 16
2025-09-16 01:00:42,367 | INFO | 17
2025-09-16 01:00:42,378 | INFO | 18
2025-09-16 01:00:42,419 | INFO | Phase-1 solve: time=120.0s workers=8
2025-09-16 01:00:42,523 | INFO | [phase1] 
2025-09-16 01:00:42,524 | INFO | [phase1] Starting CP-SAT solver v9.14.6206
2025-09-16 01:00:42,529 | INFO | [phase1] Parameters: max_time_in_seconds: 120 log_search_progress: true num_search_workers: 8 log_to_stdout: false
2025-09-16 01:00:42,572 | INFO | [phase1] 
2025-09-16 01:00:42,677 | INFO | [phase1] Initial optimization model '': (model_fingerprint: 0x116820da94933b9c)
#Variables: 9'877 (#ints: 1 in objective) (6'240 primary variables)
  - 7'348 Booleans in [0,1]
  - 19 in [-31,31]
  - 1'216 in [0,31]
  - 19 in [0,308]
  - 589 in [0,961]
  - 76 in [0,1000]
  - 608 in [0,29791]
  - 1 in [0,1000000000000000000]
  - 1 constants in {0} 
#kAtMostOne: 34'713 (#literals: 69'426)
#kIntProd: 1'178
#kLinMax: 38 (#expressions: 627)
#kLinear1: 4'094 (#enforced: 1'767 #multi: 570)
#kLinear2: 8'228 (#enforced: 1'159 #multi: 570)
#kLinear3: 571
#kLinearN: 976 (#terms: 26'986)
2025-09-16 01:00:42,677 | INFO | [phase1] 
2025-09-16 01:00:42,687 | INFO | [phase1] Starting presolve at 0.17s
2025-09-16 01:00:43,146 | INFO | [phase1]   1.13e-02s  0.00e+00d  [DetectDominanceRelations]
2025-09-16 01:00:43,146 | INFO | [phase1]   3.59e-01s  0.00e+00d  [operations_research::sat::CpModelPresolver::PresolveToFixPoint] #num_loops=3 #num_dual_strengthening=2
2025-09-16 01:00:43,155 | INFO | [phase1]   3.04e-03s  0.00e+00d  [operations_research::sat::CpModelPresolver::ExtractEncodingFromLinear] #potential_supersets=12'718
2025-09-16 01:00:43,169 | INFO | [phase1]   5.47e-03s  0.00e+00d  [operations_research::sat::CpModelPresolver::DetectDuplicateColumns]
2025-09-16 01:00:43,181 | INFO | [phase1]   1.11e-02s  0.00e+00d  [operations_research::sat::CpModelPresolver::DetectDuplicateConstraints] #duplicates=403
2025-09-16 01:00:43,213 | INFO | [phase1] [SAT presolve] num removable Booleans: 0 / 5020
2025-09-16 01:00:43,213 | INFO | [phase1] [SAT presolve] num trivial clauses: 0
2025-09-16 01:00:43,222 | INFO | [phase1] [SAT presolve] [0s] clauses:5867 literals:15515 vars:4712 one_side_vars:2 simple_definition:4106 singleton_clauses:0
2025-09-16 01:00:43,224 | INFO | [phase1] [SAT presolve] [0.0087814s] clauses:5867 literals:15515 vars:4712 one_side_vars:2 simple_definition:4106 singleton_clauses:0
2025-09-16 01:00:43,224 | INFO | [phase1] [SAT presolve] [0.0099429s] clauses:5867 literals:15515 vars:4712 one_side_vars:2 simple_definition:4106 singleton_clauses:0
2025-09-16 01:00:43,476 | INFO | [phase1]   6.47e-03s  0.00e+00d  [operations_research::sat::CpModelPresolver::DetectDuplicateConstraintsWithDifferentEnforcements]
2025-09-16 01:00:43,476 | INFO | [phase1]   2.38e-01s  2.57e-02d  [operations_research::sat::CpModelPresolver::Probe] #probed=13'584 #new_bounds=608 #new_binary_clauses=1'758
2025-09-16 01:00:43,514 | INFO | [phase1]   2.84e-02s  4.06e-03d  [MaxClique] Merged 16'708(33'416 literals) into 2'686(10'828 literals) at_most_ones.
2025-09-16 01:00:43,594 | INFO | [phase1]   9.85e-03s  0.00e+00d  [DetectDominanceRelations]
2025-09-16 01:00:43,602 | INFO | [phase1]   7.82e-02s  0.00e+00d  [operations_research::sat::CpModelPresolver::PresolveToFixPoint] #num_loops=2 #num_dual_strengthening=1
2025-09-16 01:00:43,610 | INFO | [phase1]   9.15e-03s  0.00e+00d  [operations_research::sat::CpModelPresolver::ProcessAtMostOneAndLinear]
2025-09-16 01:00:43,619 | INFO | [phase1]   7.21e-03s  0.00e+00d  [operations_research::sat::CpModelPresolver::DetectDuplicateConstraints]
2025-09-16 01:00:43,631 | INFO | [phase1]   9.56e-03s  0.00e+00d  [operations_research::sat::CpModelPresolver::DetectDuplicateConstraintsWithDifferentEnforcements]
2025-09-16 01:00:43,631 | INFO | [phase1]   1.16e-03s  1.89e-05d  [operations_research::sat::CpModelPresolver::DetectDominatedLinearConstraints] #relevant_constraints=58
2025-09-16 01:00:43,635 | INFO | [phase1]   1.20e-03s  0.00e+00d  [operations_research::sat::CpModelPresolver::DetectDifferentVariables]
2025-09-16 01:00:43,638 | INFO | [phase1]   9.07e-03s  3.43e-04d  [operations_research::sat::CpModelPresolver::ProcessSetPPC] #relevant_constraints=4'264 #num_inclusions=2'981
2025-09-16 01:00:43,647 | INFO | [phase1]   1.43e-03s  0.00e+00d  [operations_research::sat::CpModelPresolver::FindAlmostIdenticalLinearConstraints]
2025-09-16 01:00:43,690 | INFO | [phase1]   4.27e-02s  1.11e-02d  [operations_research::sat::CpModelPresolver::FindBigAtMostOneAndLinearOverlap]
2025-09-16 01:00:43,702 | INFO | [phase1]   1.09e-02s  5.35e-03d  [operations_research::sat::CpModelPresolver::FindBigVerticalLinearOverlap]
2025-09-16 01:00:43,711 | INFO | [phase1]   5.75e-03s  5.15e-04d  [operations_research::sat::CpModelPresolver::FindBigHorizontalLinearOverlap] #blocks=9 #saved_nz=1'545 #linears=47
2025-09-16 01:00:43,711 | INFO | [phase1]   3.03e-03s  1.55e-05d  [operations_research::sat::CpModelPresolver::MergeClauses]
2025-09-16 01:00:43,803 | INFO | [phase1]   1.08e-02s  0.00e+00d  [DetectDominanceRelations]
2025-09-16 01:00:43,803 | INFO | [phase1]   8.21e-02s  0.00e+00d  [operations_research::sat::CpModelPresolver::PresolveToFixPoint] #num_loops=3 #num_dual_strengthening=2
2025-09-16 01:00:43,924 | INFO | [phase1]   1.87e-02s  0.00e+00d  [DetectDominanceRelations]
2025-09-16 01:00:43,927 | INFO | [phase1]   1.20e-01s  0.00e+00d  [operations_research::sat::CpModelPresolver::PresolveToFixPoint] #num_loops=1 #num_dual_strengthening=1
2025-09-16 01:00:43,932 | INFO | [phase1]   4.46e-03s  0.00e+00d  [operations_research::sat::CpModelPresolver::DetectDuplicateColumns]
2025-09-16 01:00:43,959 | INFO | [phase1]   2.16e-02s  0.00e+00d  [operations_research::sat::CpModelPresolver::DetectDuplicateConstraints]
2025-09-16 01:00:43,995 | INFO | [phase1] [SAT presolve] num removable Booleans: 57 / 4769
2025-09-16 01:00:43,996 | INFO | [phase1] [SAT presolve] num trivial clauses: 0
2025-09-16 01:00:43,999 | INFO | [phase1] [SAT presolve] [0s] clauses:2054 literals:5548 vars:1949 one_side_vars:723 simple_definition:599 singleton_clauses:0
2025-09-16 01:00:43,999 | INFO | [phase1] [SAT presolve] [0.005646s] clauses:2016 literals:5396 vars:1949 one_side_vars:723 simple_definition:637 singleton_clauses:0
2025-09-16 01:00:44,004 | INFO | [phase1] [SAT presolve] [0.0093749s] clauses:1902 literals:5168 vars:1892 one_side_vars:723 simple_definition:618 singleton_clauses:0
2025-09-16 01:00:44,330 | INFO | [phase1]   9.93e-03s  0.00e+00d  [operations_research::sat::CpModelPresolver::DetectDuplicateConstraintsWithDifferentEnforcements]
2025-09-16 01:00:44,330 | INFO | [phase1]   3.22e-01s  2.09e-02d  [operations_research::sat::CpModelPresolver::Probe] #probed=13'660 #new_bounds=1'653 #new_binary_clauses=1'720
2025-09-16 01:00:44,345 | INFO | [phase1]   1.47e-02s  2.64e-03d  [MaxClique]
2025-09-16 01:00:44,438 | INFO | [phase1]   1.07e-02s  0.00e+00d  [DetectDominanceRelations]
2025-09-16 01:00:44,438 | INFO | [phase1]   8.74e-02s  0.00e+00d  [operations_research::sat::CpModelPresolver::PresolveToFixPoint] #num_loops=2 #num_dual_strengthening=1
2025-09-16 01:00:44,452 | INFO | [phase1]   8.98e-03s  0.00e+00d  [operations_research::sat::CpModelPresolver::ProcessAtMostOneAndLinear]
2025-09-16 01:00:44,458 | INFO | [phase1]   7.06e-03s  0.00e+00d  [operations_research::sat::CpModelPresolver::DetectDuplicateConstraints]
2025-09-16 01:00:44,468 | INFO | [phase1]   7.46e-03s  0.00e+00d  [operations_research::sat::CpModelPresolver::DetectDuplicateConstraintsWithDifferentEnforcements]
2025-09-16 01:00:44,472 | INFO | [phase1]   1.96e-03s  1.26e-05d  [operations_research::sat::CpModelPresolver::DetectDominatedLinearConstraints] #relevant_constraints=67
2025-09-16 01:00:44,472 | INFO | [phase1]   1.39e-03s  0.00e+00d  [operations_research::sat::CpModelPresolver::DetectDifferentVariables]
2025-09-16 01:00:44,479 | INFO | [phase1]   5.97e-03s  2.49e-04d  [operations_research::sat::CpModelPresolver::ProcessSetPPC] #relevant_constraints=3'770 #num_inclusions=2'277
2025-09-16 01:00:44,482 | INFO | [phase1]   1.32e-03s  0.00e+00d  [operations_research::sat::CpModelPresolver::FindAlmostIdenticalLinearConstraints]
2025-09-16 01:00:44,516 | INFO | [phase1]   2.94e-02s  8.15e-03d  [operations_research::sat::CpModelPresolver::FindBigAtMostOneAndLinearOverlap]
2025-09-16 01:00:44,526 | INFO | [phase1]   9.18e-03s  3.86e-03d  [operations_research::sat::CpModelPresolver::FindBigVerticalLinearOverlap]
2025-09-16 01:00:44,529 | INFO | [phase1]   2.64e-03s  6.80e-04d  [operations_research::sat::CpModelPresolver::FindBigHorizontalLinearOverlap] #linears=38
2025-09-16 01:00:44,533 | INFO | [phase1]   3.08e-03s  1.44e-05d  [operations_research::sat::CpModelPresolver::MergeClauses]
2025-09-16 01:00:44,588 | INFO | [phase1]   9.49e-03s  0.00e+00d  [DetectDominanceRelations]
2025-09-16 01:00:44,588 | INFO | [phase1]   5.45e-02s  0.00e+00d  [operations_research::sat::CpModelPresolver::PresolveToFixPoint] #num_loops=1 #num_dual_strengthening=1
2025-09-16 01:00:44,603 | INFO | [phase1]   9.94e-03s  0.00e+00d  [operations_research::sat::CpModelPresolver::ExpandObjective] #entries=24'030 #tight_variables=3'244 #tight_constraints=418 #expands=285
2025-09-16 01:00:44,620 | INFO | [phase1] 
2025-09-16 01:00:44,621 | INFO | [phase1] Presolve summary:
2025-09-16 01:00:44,622 | INFO | [phase1]   - 62 affine relations were detected.
2025-09-16 01:00:44,622 | INFO | [phase1]   - rule 'TODO dual: only one blocking constraint?' was applied 9'124 times.
2025-09-16 01:00:44,622 | INFO | [phase1]   - rule 'TODO dual: only one unspecified blocking constraint?' was applied 240 times.
2025-09-16 01:00:44,622 | INFO | [phase1]   - rule 'TODO duplicate: duplicate columns in Boolean constraints' was applied 4 times.
2025-09-16 01:00:44,622 | INFO | [phase1]   - rule 'TODO linear2: contains a Boolean.' was applied 9'402 times.
2025-09-16 01:00:44,622 | INFO | [phase1]   - rule 'affine: new relation' was applied 62 times.
2025-09-16 01:00:44,622 | INFO | [phase1]   - rule 'at_most_one: empty or all false' was applied 5'377 times.
2025-09-16 01:00:44,622 | INFO | [phase1]   - rule 'at_most_one: removed literals' was applied 22'303 times.
2025-09-16 01:00:44,635 | INFO | [phase1]   - rule 'at_most_one: size one' was applied 16'926 times.
2025-09-16 01:00:44,636 | INFO | [phase1]   - rule 'at_most_one: transformed into max clique.' was applied 1 time.
2025-09-16 01:00:44,638 | INFO | [phase1]   - rule 'bool_and: x => x' was applied 19 times.
2025-09-16 01:00:44,639 | INFO | [phase1]   - rule 'bool_or: implications' was applied 4'701 times.
2025-09-16 01:00:44,639 | INFO | [phase1]   - rule 'bool_or: removed enforcement literal' was applied 76 times.
2025-09-16 01:00:44,639 | INFO | [phase1]   - rule 'deductions: 1824 stored' was applied 1 time.
2025-09-16 01:00:44,639 | INFO | [phase1]   - rule 'dual: fix variable' was applied 8 times.
2025-09-16 01:00:44,639 | INFO | [phase1]   - rule 'dual: reduced domain' was applied 39 times.
2025-09-16 01:00:44,639 | INFO | [phase1]   - rule 'duplicate: removed constraint' was applied 403 times.
2025-09-16 01:00:44,652 | INFO | [phase1]   - rule 'exactly_one: removed literals' was applied 308 times.
2025-09-16 01:00:44,653 | INFO | [phase1]   - rule 'exactly_one: singleton' was applied 308 times.
2025-09-16 01:00:44,654 | INFO | [phase1]   - rule 'int_prod: boolean affine term' was applied 38 times.
2025-09-16 01:00:44,654 | INFO | [phase1]   - rule 'int_square: reduced target domain.' was applied 589 times.
2025-09-16 01:00:44,654 | INFO | [phase1]   - rule 'lin_max: affine_max target domain reduced' was applied 19 times.
2025-09-16 01:00:44,654 | INFO | [phase1]   - rule 'lin_max: fixed affine_max target' was applied 8 times.
2025-09-16 01:00:44,660 | INFO | [phase1]   - rule 'lin_max: unused affine target' was applied 8 times.
2025-09-16 01:00:44,668 | INFO | [phase1]   - rule 'linear matrix: common horizontal rectangle' was applied 9 times.
2025-09-16 01:00:44,669 | INFO | [phase1]   - rule 'linear1: x in domain' was applied 2'327 times.
2025-09-16 01:00:44,671 | INFO | [phase1]   - rule 'linear: always true' was applied 2'341 times.
2025-09-16 01:00:44,672 | INFO | [phase1]   - rule 'linear: enforcement literal in expression' was applied 57 times.
2025-09-16 01:00:44,672 | INFO | [phase1]   - rule 'linear: fixed or dup variables' was applied 3'268 times.
2025-09-16 01:00:44,672 | INFO | [phase1]   - rule 'linear: negative clause' was applied 4'701 times.
2025-09-16 01:00:44,672 | INFO | [phase1]   - rule 'linear: positive clause' was applied 1'166 times.
2025-09-16 01:00:44,672 | INFO | [phase1]   - rule 'linear: positive equal one' was applied 308 times.
2025-09-16 01:00:44,672 | INFO | [phase1]   - rule 'linear: reduced variable domains' was applied 19 times.
2025-09-16 01:00:44,672 | INFO | [phase1]   - rule 'linear: remapped using affine relations' was applied 108 times.
2025-09-16 01:00:44,682 | INFO | [phase1]   - rule 'linear: singleton column' was applied 19 times.
2025-09-16 01:00:44,683 | INFO | [phase1]   - rule 'linear: small Boolean expression' was applied 38 times.
2025-09-16 01:00:44,684 | INFO | [phase1]   - rule 'linear: variable substitution 0' was applied 1 time.
2025-09-16 01:00:44,685 | INFO | [phase1]   - rule 'linear: variable substitution 1' was applied 17 times.
2025-09-16 01:00:44,686 | INFO | [phase1]   - rule 'objective: expanded via tight equality' was applied 285 times.
2025-09-16 01:00:44,686 | INFO | [phase1]   - rule 'presolve: 2363 unused variables removed.' was applied 1 time.
2025-09-16 01:00:44,686 | INFO | [phase1]   - rule 'presolve: iteration' was applied 2 times.
2025-09-16 01:00:44,686 | INFO | [phase1]   - rule 'setppc: bool_or in at_most_one.' was applied 409 times.
2025-09-16 01:00:44,686 | INFO | [phase1]   - rule 'variables: both boolean and its negation fix the same variable' was applied 19 times.
2025-09-16 01:00:44,693 | INFO | [phase1]   - rule 'variables: detect half reified value encoding' was applied 1'197 times.
2025-09-16 01:00:44,714 | INFO | [phase1] 
2025-09-16 01:00:44,736 | INFO | [phase1] Presolved optimization model '': (model_fingerprint: 0xba486c6edd337a04)
#Variables: 7'051 (#bools: 868 #ints: 39 in objective) (5'452 primary variables)
  - 4'712 Booleans in [0,1]
  - 102 different domains in [-20,29791] with a largest complexity of 31.
#kAtMostOne: 1'440 (#literals: 8'849)
#kBoolAnd: 1'145 (#enforced: 1'145) (#literals: 2'290)
#kBoolOr: 757 (#literals: 2'878)
#kExactlyOne: 409 (#literals: 3'235)
#kIntProd: 1'140
#kLinMax: 22 (#expressions: 363)
#kLinear1: 1'729 (#enforced: 1'729 #multi: 589)
#kLinear2: 1'150 (#enforced: 1'121 #multi: 551)
#kLinearN: 38 (#terms: 4'154)
2025-09-16 01:00:44,736 | INFO | [phase1] 
2025-09-16 01:00:44,736 | INFO | [phase1] Preloading model.
2025-09-16 01:00:44,746 | INFO | [phase1] #Bound   2.23s best:inf   next:[-11060,8605] initial_domain
2025-09-16 01:00:44,762 | INFO | [phase1] #Model   2.25s var:7051/7051 constraints:7830/7830
2025-09-16 01:00:44,769 | INFO | [phase1] 
2025-09-16 01:00:44,769 | INFO | [phase1] Starting search at 2.25s with 8 workers.
2025-09-16 01:00:44,769 | INFO | [phase1] 6 full problem subsolvers: [core, default_lp, max_lp, no_lp, quick_restart, reduced_costs]
2025-09-16 01:00:44,769 | INFO | [phase1] 2 first solution subsolvers: [fj, fs_random_no_lp]
2025-09-16 01:00:44,769 | INFO | [phase1] 9 interleaved subsolvers: [feasibility_pump, graph_arc_lns, graph_cst_lns, graph_dec_lns, graph_var_lns, ls, rins/rens, rnd_cst_lns, rnd_var_lns]
2025-09-16 01:00:44,778 | INFO | [phase1] 3 helper subsolvers: [neighborhood_helper, synchronization_agent, update_gap_integral]
2025-09-16 01:00:44,778 | INFO | [phase1] 
2025-09-16 01:00:44,927 | INFO | [phase1] #1       2.41s best:6323  next:[-11060,6322] fj_restart(batch:1 lin{mvs:15 evals:279} gen{mvs:11 evals:284} #w_updates:1 #perturb:0)
2025-09-16 01:00:45,067 | INFO | [phase1] #2       2.55s best:6201  next:[-11060,6200] rnd_var_lns (d=5.00e-01 s=9 t=0.10 p=0.00 stall=0 h=base) [hint]
2025-09-16 01:00:45,136 | INFO | [phase1] #3       2.62s best:5983  next:[-11060,5982] rnd_cst_lns (d=5.00e-01 s=10 t=0.10 p=0.00 stall=0 h=base)
2025-09-16 01:00:45,347 | INFO | [phase1] #Bound   2.83s best:5983  next:[-1940,5982] quick_restart (initial_propagation)
2025-09-16 01:00:45,380 | INFO | [phase1] #Bound   2.86s best:5983  next:[-1931,5982] quick_restart
2025-09-16 01:00:45,399 | INFO | [phase1] #4       2.88s best:5923  next:[-1931,5922] graph_cst_lns (d=5.00e-01 s=13 t=0.10 p=0.00 stall=0 h=base)
2025-09-16 01:00:45,421 | INFO | [phase1] #Bound   2.90s best:5923  next:[-1749,5922] quick_restart
2025-09-16 01:00:45,452 | INFO | [phase1] #Bound   2.93s best:5923  next:[-1553,5922] quick_restart
2025-09-16 01:00:45,493 | INFO | [phase1] #Bound   2.97s best:5923  next:[-922,5922] quick_restart
2025-09-16 01:00:45,618 | INFO | [phase1] #Bound   3.10s best:5923  next:[-220,5922] quick_restart
2025-09-16 01:00:45,920 | INFO | [phase1] #5       3.40s best:5124  next:[-220,5123] graph_dec_lns (d=5.00e-01 s=14 t=0.10 p=0.00 stall=0 h=base)
2025-09-16 01:00:46,819 | INFO | [phase1] #Bound   4.30s best:5124  next:[-20,5123] quick_restart
2025-09-16 01:00:46,866 | INFO | [phase1] #Bound   4.35s best:5124  next:[0,5123]   max_lp
2025-09-16 01:00:46,878 | INFO | [phase1] #6       4.36s best:4017  next:[0,4016]   graph_arc_lns (d=5.00e-01 s=12 t=0.10 p=0.00 stall=0 h=base)
2025-09-16 01:00:46,881 | INFO | [phase1] #7       4.36s best:3957  next:[0,3956]   graph_arc_lns (d=5.00e-01 s=12 t=0.10 p=0.00 stall=0 h=base) [combined with: graph_cst_lns (d=5.0...]
2025-09-16 01:00:46,908 | INFO | [phase1] #8       4.39s best:3952  next:[0,3951]   ls_restart_decay(batch:1 lin{mvs:3 evals:781} #w_updates:0 #perturb:0)
2025-09-16 01:00:46,933 | INFO | [phase1] #9       4.42s best:1479  next:[0,1478]   no_lp
2025-09-16 01:00:46,972 | INFO | [phase1] #10      4.46s best:1467  next:[0,1466]   no_lp
2025-09-16 01:00:47,129 | INFO | [phase1] #11      4.61s best:1464  next:[0,1463]   ls_restart_decay_compound_perturb(batch:1 lin{mvs:0 evals:17'805} gen{mvs:755 evals:1'227} comp{mvs:29 btracks:363} #w_updates:7 #perturb:0)
2025-09-16 01:00:49,068 | INFO | [phase1] #12      6.55s best:8     next:[0,7]      reduced_costs
2025-09-16 01:00:49,913 | INFO | [phase1] #Model   7.40s var:5185/7051 constraints:6101/7830
2025-09-16 01:00:49,978 | INFO | [phase1] #Bound   7.46s best:8     next:[1,7]      max_lp
2025-09-16 01:00:50,602 | INFO | [phase1] #13      8.08s best:7     next:[1,6]      graph_dec_lns (d=7.07e-01 s=25 t=0.10 p=1.00 stall=0 h=base)
2025-09-16 01:00:51,447 | INFO | [phase1] #Model   8.93s var:5170/7051 constraints:6079/7830
2025-09-16 01:00:57,167 | INFO | [phase1] #14     14.65s best:4     next:[1,3]      quick_restart
2025-09-16 01:01:08,086 | INFO | [phase1] #Model  25.57s var:5144/7051 constraints:6069/7830
2025-09-16 01:01:09,058 | INFO | [phase1] #Model  26.54s var:5131/7051 constraints:6055/7830
2025-09-16 01:01:13,554 | INFO | [phase1] #15     31.03s best:3     next:[1,2]      quick_restart
2025-09-16 01:01:14,498 | INFO | [phase1] #Model  31.98s var:5124/7051 constraints:6049/7830
2025-09-16 01:01:17,791 | INFO | [phase1] #Model  35.27s var:5123/7051 constraints:6049/7830
2025-09-16 01:01:18,389 | INFO | [phase1] #Model  35.87s var:5116/7051 constraints:6040/7830
2025-09-16 01:01:18,640 | INFO | [phase1] #Model  36.12s var:5115/7051 constraints:6040/7830
2025-09-16 01:01:21,722 | INFO | [phase1] #16     39.20s best:2     next:[1,1]      graph_dec_lns (d=7.58e-01 s=106 t=0.10 p=0.60 stall=8 h=base)
2025-09-16 01:01:22,380 | INFO | [phase1] #Model  39.87s var:5043/7051 constraints:5975/7830
2025-09-16 01:01:26,826 | INFO | [phase1] #17     44.31s best:1     next:[]         quick_restart
2025-09-16 01:01:29,130 | INFO | [phase1] #Done   46.61s default_lp
2025-09-16 01:01:29,130 | INFO | [phase1] #Done   46.61s quick_restart
2025-09-16 01:01:29,288 | INFO | [phase1] 
2025-09-16 01:01:29,288 | INFO | [phase1] Task timing                   n [     min,      max]      avg      dev     time         n [     min,      max]      avg      dev    dtime
              'core':         1 [  44.35s,   44.35s]   44.35s   0.00ns   44.35s         1 [   2.01s,    2.01s]    2.01s   0.00ns    2.01s
        'default_lp':         1 [  44.35s,   44.35s]   44.35s   0.00ns   44.35s         1 [   1.91s,    1.91s]    1.91s   0.00ns    1.91s
  'feasibility_pump':        10 [117.78ms,    2.79s] 927.00ms 659.07ms    9.27s         9 [ 54.48ms, 118.04ms]  69.46ms  18.56ms 625.18ms
                'fj':         1 [ 33.84ms,  33.84ms]  33.84ms   0.00ns  33.84ms         1 [550.86us, 550.86us] 550.86us   0.00ns 550.86us
   'fs_random_no_lp':         1 [155.83ms, 155.83ms] 155.83ms   0.00ns 155.83ms         0 [  0.00ns,   0.00ns]   0.00ns   0.00ns   0.00ns
     'graph_arc_lns':        15 [ 10.64ms,    2.28s] 584.70ms 689.01ms    8.77s        12 [  6.08us, 100.17ms]  42.66ms  48.59ms 511.96ms
     'graph_cst_lns':        13 [ 51.56ms,    1.49s] 644.96ms 528.15ms    8.38s        13 [  5.10us, 100.03ms]  53.90ms  49.81ms 700.64ms
     'graph_dec_lns':        11 [102.18ms,    1.59s] 605.64ms 450.10ms    6.66s        10 [492.00ns, 100.03ms]  51.96ms  48.20ms 519.58ms
     'graph_var_lns':        13 [  9.51ms,    1.51s] 556.17ms 563.60ms    7.23s        12 [  1.79us, 100.85ms]  50.10ms  50.05ms 601.22ms
                'ls':        25 [ 24.78ms, 459.03ms] 260.79ms  85.86ms    6.52s        25 [154.60us, 100.03ms]  92.47ms  25.63ms    2.31s
            'max_lp':         1 [  44.45s,   44.45s]   44.45s   0.00ns   44.45s         1 [   3.07s,    3.07s]    3.07s   0.00ns    3.07s
             'no_lp':         1 [  44.35s,   44.35s]   44.35s   0.00ns   44.35s         1 [  10.03s,   10.03s]   10.03s   0.00ns   10.03s
     'quick_restart':         1 [  44.35s,   44.35s]   44.35s   0.00ns   44.35s         1 [   1.41s,    1.41s]    1.41s   0.00ns    1.41s
     'reduced_costs':         1 [  44.35s,   44.35s]   44.35s   0.00ns   44.35s         1 [   3.32s,    3.32s]    3.32s   0.00ns    3.32s
         'rins/rens':         8 [ 86.32ms,    3.64s]    1.26s    1.06s   10.09s         8 [303.00ns, 100.06ms]  69.89ms  41.98ms 559.08ms
       'rnd_cst_lns':        13 [ 42.42ms,    1.23s] 541.81ms 399.66ms    7.04s        12 [  8.83us, 100.03ms]  62.14ms  46.02ms 745.72ms
       'rnd_var_lns':         6 [135.52ms,   11.60s]    2.27s    4.19s   13.63s         6 [  1.21us, 100.03ms]  50.03ms  49.99ms 300.19ms
2025-09-16 01:01:29,290 | INFO | [phase1] Search stats          Bools  Conflicts   Branches  Restarts  BoolPropag  IntegerPropag
             'core':  6'860      8'396  1'243'971    97'318   7'001'220     12'824'205
       'default_lp':  6'422        695    159'002    84'780     969'894      1'661'352
  'fs_random_no_lp':  6'422          0      2'402     2'402      27'644         34'512
           'max_lp':  6'429        332     44'874    29'070     293'750        511'602
            'no_lp':  6'458    294'147    837'959   232'437  18'340'459     32'297'455
    'quick_restart':  6'459        619    170'083    92'202   1'038'983      1'765'342
    'reduced_costs':  6'452        397    109'485    59'637     654'984      1'198'934
2025-09-16 01:01:29,290 | INFO | [phase1] SAT stats             ClassicMinim  LitRemoved  LitLearned  LitForgotten  Subsumed  MClauses  MDecisions  MLitTrue  MSubsumed  MLitRemoved  MReused
             'core':         3'104      10'183     169'492             0       778    23'509      93'130         0        353        2'922      511
       'default_lp':            20          37       6'648             0       551    16'186      65'146         0         11          280       11
  'fs_random_no_lp':             0           0           0             0         0         0           0         0          0            0        0
           'max_lp':             1           1         669             0       325     3'701      14'379         0          7          260        0
            'no_lp':        67'241     107'956   6'238'037     5'301'022    24'700    52'517     211'597         0        294        2'031      378
    'quick_restart':            22          32       4'439             0       545    17'567      70'956         0         13          284        3
    'reduced_costs':            26         170       2'858             0       327    10'385      41'315         0          8          263        2
2025-09-16 01:01:29,295 | INFO | [phase1] Lp stats            Component  Iterations  AddedCuts  OPTIMAL  DUAL_F.  DUAL_U.
     'default_lp':         20      22'285        196    8'348        1       32
         'max_lp':          1      16'750      5'501      239      210        0
  'quick_restart':         20      16'428        296    4'351        0        4
  'reduced_costs':          1      29'272      6'279      310    1'864       35
2025-09-16 01:01:29,297 | INFO | [phase1] Lp dimension            Final dimension of first component
     'default_lp':    778 rows, 4230 columns, 7105 entries
         'max_lp':  2634 rows, 7051 columns, 14405 entries
  'quick_restart':    723 rows, 4230 columns, 7450 entries
  'reduced_costs':  3638 rows, 7051 columns, 18353 entries
2025-09-16 01:01:29,297 | INFO | [phase1] Lp debug            CutPropag  CutEqPropag  Adjust  Overflow      Bad  BadScaling
     'default_lp':          0            1   1'352         0   19'404           0
         'max_lp':          2           10     449         0  111'947           0
  'quick_restart':          0            1   1'358         0   25'319           0
  'reduced_costs':          1            0   2'205         0   63'895           0
2025-09-16 01:01:29,299 | INFO | [phase1] Lp pool             Constraints  Updates  Simplif  Merged  Shortened  Split  Strenghtened      Cuts/Call
     'default_lp':        4'183       43   14'909       2      1'581      0           150     196/19'023
         'max_lp':       15'798    2'085   25'777     135      4'261    936         8'152  5'501/144'625
  'quick_restart':        4'280       77   15'057       5      1'598      0           151     296/20'826
  'reduced_costs':       16'522    1'105   38'454     189      3'817    146        13'796  6'279/240'382
2025-09-16 01:01:29,301 | INFO | [phase1] Lp Cut              default_lp  quick_restart  reduced_costs  max_lp
            CG_FF:           8             13            123      81
             CG_K:           -              7             46      30
             CG_R:          12             21             81      62
            CG_RB:           -              -             29      34
           CG_RBP:           -              -             37      39
           Clique:           -              -             25       3
               IB:          29             30            590     179
         MIR_1_FF:           -              -            443     412
          MIR_1_K:           -              -             44      28
         MIR_1_KL:           -              -             16       -
          MIR_1_R:           -              -             16      13
         MIR_1_RB:           -              -             26      44
        MIR_1_RBP:           -              -             14      14
        MIR_1_RLT:           -              -            431     317
         MIR_2_FF:           -              -            489     427
          MIR_2_K:           -              -             32      28
         MIR_2_KL:           -              -             28       -
          MIR_2_R:           -              -            243     149
         MIR_2_RB:           -              -             52      26
        MIR_2_RBP:           -              -             15      11
         MIR_3_FF:           -              -            374     215
          MIR_3_K:           -              -             39      14
         MIR_3_KL:           -              -             11       -
          MIR_3_R:           -              -            235      90
         MIR_3_RB:           -              -             32      10
        MIR_3_RBP:           -              -             21      14
         MIR_4_FF:           -              -            235     111
          MIR_4_K:           -              -             26      10
         MIR_4_KL:           -              -              5       -
          MIR_4_R:           -              -            157      66
         MIR_4_RB:           -              -             11      10
        MIR_4_RBP:           -              -             16       6
         MIR_5_FF:           -              -            116      38
          MIR_5_K:           -              -             16       3
         MIR_5_KL:           -              -              5       -
          MIR_5_R:           -              -             77      39
         MIR_5_RB:           -              -              7       1
        MIR_5_RBP:           -              -             11       1
         MIR_6_FF:           -              -             59      34
          MIR_6_K:           -              -              7       3
          MIR_6_R:           -              -             63      20
         MIR_6_RB:           -              -              4       3
        MIR_6_RBP:           -              -              3       1
  PositiveProduct:           -              -             52      48
      SquareLower:           -              -            266     178
      SquareUpper:           -              -              4       2
     ZERO_HALF_FF:         112            145            446     640
      ZERO_HALF_K:           -              -             32      58
     ZERO_HALF_KL:           -              -              8       1
      ZERO_HALF_R:          35             80            949   1'659
     ZERO_HALF_RB:           -              -             45      59
    ZERO_HALF_RBP:           -              -            167     270
2025-09-16 01:01:29,309 | INFO | [phase1] LNS stats           Improv/Calls  Closed  Difficulty  TimeLimit
  'graph_arc_lns':          1/14     64%    7.75e-01       0.10
  'graph_cst_lns':          1/13     46%    4.11e-01       0.10
  'graph_dec_lns':          3/11     55%    6.88e-01       0.10
  'graph_var_lns':          2/12     50%    5.32e-01       0.10
      'rins/rens':           1/8     38%    2.42e-01       0.10
    'rnd_cst_lns':          2/13     46%    4.36e-01       0.10
    'rnd_var_lns':           2/6     50%    5.64e-01       0.10
2025-09-16 01:01:29,309 | INFO | [phase1] LS stats                                Batches  Restarts/Perturbs  LinMoves  GenMoves  CompoundMoves  Bactracks  WeightUpdates  ScoreComputed
                         'fj_restart':        1                  1        15        11              0          0              1          1'347
                         'ls_restart':        3                  3    38'412         0              0          0         34'413        111'169
                'ls_restart_compound':        1                  1         0     5'921            194      2'862             65        321'181
        'ls_restart_compound_perturb':        3                  3         0    14'570            787      6'885            211      1'062'888
                   'ls_restart_decay':        4                  4    46'244         0              0          0          2'461         90'639
          'ls_restart_decay_compound':        3                  3         0    19'846          4'198      7'820            137        996'375
  'ls_restart_decay_compound_perturb':        3                  3         0    12'553          1'848      5'349            110        692'050
           'ls_restart_decay_perturb':        5                  5    85'941         0              0          0         13'266        182'525
                 'ls_restart_perturb':        3                  3    40'076         0              0          0         28'424        106'252
2025-09-16 01:01:29,311 | INFO | [phase1] Solutions (17)                          Num     Rank
                         'fj_restart':    1    [1,1]
                      'graph_arc_lns':    2    [6,7]
                      'graph_cst_lns':    1    [4,4]
                      'graph_dec_lns':    3   [5,16]
                   'ls_restart_decay':    1    [8,8]
  'ls_restart_decay_compound_perturb':    1  [11,11]
                              'no_lp':    2   [9,10]
                      'quick_restart':    3  [14,17]
                      'reduced_costs':    1  [12,12]
                        'rnd_cst_lns':    1    [3,3]
                        'rnd_var_lns':    1    [2,2]
2025-09-16 01:01:29,322 | INFO | [phase1] Objective bounds     Num
  'initial_domain':    1
          'max_lp':    2
   'quick_restart':    7
2025-09-16 01:01:29,322 | INFO | [phase1] Solution repositories    Added  Queried  Synchro
  'feasible solutions':     73      191       58
   'fj solution hints':      0        0        0
        'lp solutions':     77        3       50
                'pump':    187        5
2025-09-16 01:01:29,329 | INFO | [phase1] Improving bounds shared      Num  Sym
                  'core':     20    0
            'default_lp':    758    0
                'max_lp':     28    0
                 'no_lp':      5    0
         'quick_restart':  2'078    0
         'reduced_costs':  3'082    0
2025-09-16 01:01:29,333 | INFO | [phase1] Clauses shared      Num
           'core':  377
     'default_lp':    7
          'no_lp':   88
  'quick_restart':    7
  'reduced_costs':   73
2025-09-16 01:01:29,337 | INFO | [phase1] CpSolverResponse summary:
status: OPTIMAL
objective: 1
best_bound: 1
integers: 6504
booleans: 6422
conflicts: 0
branches: 2402
propagations: 27644
integer_propagations: 34512
restarts: 2402
lp_iterations: 0
walltime: 46.8156
usertime: 46.8156
deterministic_time: 28.7116
gap_integral: 10.0003
solution_fingerprint: 0x963c1c4dfa17c5a
2025-09-16 01:01:29,375 | INFO | Phase-1 status=OPTIMAL objective(U)=1.0
2025-09-16 01:01:29,377 | INFO | 1.0
2025-09-16 01:01:31,007 | INFO | [wk_pen_count_0(0..4), wk_pen_count_1(0..4), wk_pen_count_2(0..4), wk_pen_count_3(0..4), wk_pen_count_4(0..4), wk_pen_count_5(0..4), wk_pen_count_6(0..4), wk_pen_count_7(0..4), wk_pen_count_8(0..4), wk_pen_count_9(0..4), wk_pen_count_10(0..4), wk_pen_count_11(0..4), wk_pen_count_12(0..4), wk_pen_count_13(0..4), wk_pen_count_14(0..4), wk_pen_count_15(0..4), wk_pen_count_16(0..4), wk_pen_count_17(0..4), wk_pen_count_18(0..4)]
2025-09-16 01:01:31,007 | INFO | Model built: |S|=308 |P|=19 |D|=31
2025-09-16 01:01:31,007 | INFO | Time budget total=1500.00s split: phase1=600.00s phase2=900.00s
2025-09-16 01:01:31,007 | INFO | Phase-2 solve: time=900.0s workers=16 rgap=1e-05 seed=1
2025-09-16 01:01:31,007 | INFO | Diversity threshold L=1, K=1
